3
40
10917
[[297,432,733,983,227,117,892,976,287,364,105, 21,113,557,831,299,129,750,194,797,642,625, 34,933, 32,765,831, 66,592,777,898,101,512,547,819, 19, 65, 16,850,910],
 [703,568,267, 17,773,883,108, 24,713,636,895,979,887,443,169,701,871,250,806,203,358,375,966, 67,968,235,169,934,408,223,102,899,488,453,181,981,935,984,150, 90],
 [ 86, 42, 31, 11, 13,  5, 33, 18, 58, 82, 69, 12, 27, 34, 27, 21, 98,  3,  4, 85, 39, 25, 80, 38,  4, 64, 17, 34, 66, 93, 35, 75, 46, 43, 83, 87, 44, 83, 16, 15]]
[ 81,739,253,130,958,471,465,577,202,529,644,793,140,404,444,676,963,753, 81,599,965,300, 84,571,773, 36,210, 83,922,841,997,438,875,860,634,900,974,727, 61,681]